param set_len = 18;
param target = 643249717;
param values := [0] 16016161 [1] 80854890 [2] 49287959 [3] 129335283 [4] 36148869 [5] 26618120 [6] 24346588 [7] 75328762 [8] 91698798 [9] 101554599 [10] 123530748 [11] 90773997 [12] 12465080 [13] 88188487 [14] 2352327 [15] 2373993 [16] 123279563 [17] 79414974 ;
